4
8
20
1 1.3 1.55 1.75 2.1
22 36 27 38 43 7 8 24 36 35 13 15 22 19 46 27 47 28 8 19 38 42 28 12 21 45 18 38 49 44 21 8 11 34 32 43 23 24 37 31 24 5 13 8 23 20 5 22 7 37 10 43 37 41 9 38 14 19 24 14 18 43 49 44 35 36 10 29 24 19 11 6 45 42 34 8 28 13 36 11 17 35 34 40 40 21 42 7 48 8 17 10 9 21 5 30 27 25 39 47 37 24 33 29 42 44 44 39 18 36 14 46 18 14 37 10 31 14 21 42 29 26 8 19 6 36 12 28 8 22 36 14 49 7 22 19 23 11 18 25 13 10 32 47 27 14 46 43 46 18 37 6 13 25 49 26 23 47 42 46 